s = array1d(1..100, [5, 0, 0, 0, 0, 0, 0, 0, 0, 6, 0, 0, 6, 0, 0, 7, 3, 0, 0, 0, 9, 0, 0, 6, 0, 4, 0, 0, 0, 0, 4, 0, 0, 0, 0, 0, 6, 0, 7, 0, 0, 1, 9, 0, 0, 0, 8, 0, 0, 0, 0, 4, 0, 0, 1, 0, 0, 6, 0, 0, 0, 0, 0, 3, 0, 0, 0, 9, 0, 0, 0, 0, 0, 0, 4, 0, 0, 5, 6, 7, 0, 6, 5, 8, 0, 0, 0, 0, 0, 0, 0, 0, 0, 0, 0, 6, 0, 0, 0, 1]);
n = 10;
